SCIP Status        : solving was interrupted [time limit reached]
Total Time         :    3600.01
  solving          :    3600.00
  presolving       :       0.47 (included in solving)
  reading          :       0.01
  copying          :       1.10 (70 #copies) (minimal 0.00, maximal 0.03, average 0.02)
Original Problem   :
  Problem name     : bbbenchmark/pw09_100.6.cut
  Variables        : 101 (100 binary, 0 integer, 0 implicit integer, 1 continuous)
  Constraints      : 1 initial, 1 maximal
  Objective        : minimize, 1 non-zeros (abs.min = 1, abs.max = 1)
Presolved Problem  :
  Problem name     : t_bbbenchmark/pw09_100.6.cut
  Variables        : 1330 (100 binary, 0 integer, 1181 implicit integer, 49 continuous)
  Constraints      : 1326 initial, 4074 maximal
  Objective        : minimize, 1 non-zeros (abs.min = 1, abs.max = 1)
  Nonzeros         : 11661 constraint, 202 clique table
Presolvers         :   ExecTime  SetupTime  Calls  FixedVars   AggrVars   ChgTypes  ChgBounds   AddHoles    DelCons    AddCons   ChgSides   ChgCoefs
  boundshift       :       0.00       0.00      0          0          0          0          0          0          0          0          0          0
  convertinttobin  :       0.00       0.00      0          0          0          0          0          0          0          0          0          0
  domcol           :       0.00       0.00      1          0          0          0          0          0          0          0          0          0
  dualagg          :       0.00       0.00      0          0          0          0          0          0          0          0          0          0
  dualcomp         :       0.00       0.00      1          0          0          0          0          0          0          0          0          0
  dualinfer        :       0.00       0.00      0          0          0          0          0          0          0          0          0          0
  dualsparsify     :       0.00       0.00      1          0          0          0          0          0          0          0          0          0
  gateextraction   :       0.00       0.00      0          0          0          0          0          0          0          0          0          0
  implics          :       0.00       0.00      2          0          0          0          0          0          0          0          0          0
  inttobinary      :       0.00       0.00      0          0          0          0          0          0          0          0          0          0
  qpkktref         :       0.00       0.00      0          0          0          0          0          0          0          0          0          0
  redvub           :       0.00       0.00      0          0          0          0          0          0          0          0          0          0
  sparsify         :       0.00       0.00      1          0          0          0          0          0          0          0          0          0
  stuffing         :       0.00       0.00      0          0          0          0          0          0          0          0          0          0
  trivial          :       0.00       0.00      4          0          0          0          0          0          0          0          0          0
  tworowbnd        :       0.00       0.00      0          0          0          0          0          0          0          0          0          0
  dualfix          :       0.00       0.00      4          0          0          0          0          0          0          0          0          0
  genvbounds       :       0.00       0.00      0          0          0          0          0          0          0          0          0          0
  probing          :       0.21       0.00      1          0          0          0          0          0          0          0          0          0
  pseudoobj        :       0.00       0.00      1          0          0          0          1          0          0          0          0          0
  symmetry         :       0.00       0.00      0          0          0          0          0          0          0          0          0          0
  vbounds          :       0.00       0.00      1          0          0          0          0          0          0          0          0          0
  varbound         :       0.00       0.00      2          0          0          0          0          0          0          0          0          0
  and              :       0.01       0.01      2          0          0          0          0          0          0          0          0          0
  linear           :       0.00       0.00      2          0          0          0          0          0          0          0          0          0
  logicor          :       0.00       0.00      0          0          0          0          0          0          0          0          0          0
  bounddisjunction :       0.00       0.00      0          0          0          0          0          0          0          0          0          0
  nonlinear        :       0.23       0.00      5          0          0          0          1          0          0       1325          0          0
  benders          :       0.00       0.00      0          0          0          0          0          0          0          0          0          0
  components       :       0.00       0.00      1          0          0          0          0          0          0          0          0          0
  root node        :          -          -      -          0          -          -          8          -          -          -          -          -
Constraints        :     Number  MaxNumber  #Separate #Propagate    #EnfoLP    #EnfoRelax  #EnfoPS    #Check   #ResProp    Cutoffs    DomReds       Cuts    Applied      Conss   Children
  benderslp        :          0          0          0          0     408334          0          0      38794          0          0          0          0          0          0          0
  integral         :          0          0          0          0     408334          0          0      38794          0          0         15          0          0          0     816646
  varbound         :         48         48         34    1918465          0          0          0       3943         14          0     309177          0          0          0          0
  and              :       1181       1181     490197    1930306          0          0          0       2438     227702          2    3755772       2668       2173          0          0
  linear           :         97+       134         34    1932607          0          0          0       2436      32961        424    8134500          0          0          0          0
  logicor          :          0+       982          0     124788          0          0          0          0         13        251         12          0          0          0          0
  bounddisjunction :          0+      1760          0     220248          0          0          0          0         10         35          1          0          0          0          0
  benders          :          0          0          0          0          0          0          0        107          0          0          0          0          0          0          0
  countsols        :          0          0          0          0          0          0          0        107          0          0          0          0          0          0          0
  components       :          0          0          0          0          0          0          0          0          0          0          0          0          0          0          0
Constraint Timings :  TotalTime  SetupTime   Separate  Propagate     EnfoLP     EnfoPS     EnfoRelax   Check    ResProp    SB-Prop
  benderslp        :       0.42       0.00       0.00       0.00       0.38       0.00       0.00       0.04       0.00       0.00
  integral         :      87.49       0.00       0.00       0.00      87.09       0.00       0.00       0.40       0.00       0.00
  varbound         :       4.48       0.00       0.00       4.43       0.00       0.00       0.00       0.05       0.00       0.00
  and              :     205.75       0.01     153.01      51.82       0.00       0.00       0.00       0.48       0.26       0.17
  linear           :      51.85       0.00       0.02      51.62       0.00       0.00       0.00       0.03       0.14       0.04
  logicor          :       4.40       0.00       0.00       4.40       0.00       0.00       0.00       0.00       0.00       0.00
  bounddisjunction :       8.06       0.00       0.00       8.05       0.00       0.00       0.00       0.00       0.00       0.01
  benders          :       0.00       0.00       0.00       0.00       0.00       0.00       0.00       0.00       0.00       0.00
  countsols        :       0.00       0.00       0.00       0.00       0.00       0.00       0.00       0.00       0.00       0.00
  components       :       0.52       0.00       0.00       0.52       0.00       0.00       0.00       0.00       0.00       0.00
Propagators        : #Propagate   #ResProp    Cutoffs    DomReds
  dualfix          :          2          0          0          0
  genvbounds       :          0          0          0          0
  nlobbt           :          0          0          0          0
  obbt             :          0          0          0          0
  probing          :          0          0          0          0
  pseudoobj        :    1960241          3          0       3793
  redcost          :     959426          0          0     495314
  rootredcost      :          6          0          0          0
  symmetry         :          0          0          0          0
  vbounds          :     429682          0          0          0
Propagator Timings :  TotalTime  SetupTime   Presolve  Propagate    ResProp    SB-Prop
  dualfix          :       0.00       0.00       0.00       0.00       0.00       0.00
  genvbounds       :       1.64       0.00       0.00       1.64       0.00       0.00
  nlobbt           :       0.00       0.00       0.00       0.00       0.00       0.00
  obbt             :       0.00       0.00       0.00       0.00       0.00       0.00
  probing          :       0.21       0.00       0.21       0.00       0.00       0.00
  pseudoobj        :       2.86       0.00       0.00       2.86       0.00       0.00
  redcost          :      51.39       0.00       0.00      51.38       0.00       0.01
  rootredcost      :       1.93       0.00       0.00       1.92       0.00       0.01
  symmetry         :       1.13       0.00       0.00       1.12       0.00       0.01
  vbounds          :       2.10       0.00       0.00       2.10       0.00       0.00
Conflict Analysis  :       Time      Calls    Success    DomReds  Conflicts   Literals    Reconvs ReconvLits   Dualrays   Nonzeros   LP Iters   (pool size: [10000,10000])
  propagation      :       0.01        292        198          -        346       79.3          0        0.0          -          -          -
  infeasible LP    :       1.24       1473       1473          -       5081      143.8          0        0.0       2197      123.1          0
  bound exceed. LP :      15.97       4207       3966          -      71518      112.3          9       26.4          0        0.0      61274
  strong branching :       0.00          0          0          -          0        0.0          0        0.0          -          -          0
  pseudo solution  :       0.00          0          0          -          0        0.0          0        0.0          -          -          -
  applied globally :       0.33          -          -          0      17609      103.5          -          -       2197          -          -
  applied locally  :          -          -          -          0          0        0.0          -          -          0          -          -
Separators         :   ExecTime  SetupTime      Calls  RootCalls    Cutoffs    DomReds  FoundCuts ViaPoolAdd  DirectAdd    Applied ViaPoolApp  DirectApp      Conss
  cut pool         :       4.79          -      54483         57          -          -      31333    1035219          -          -          -          -          -    (maximal pool size:       1995)
  aggregation      :      88.47       0.00       5191         34          0          0       1559      32723          0      25773      25773          0          0
  > cmir           :          -          -          -          -          -          -          -      32719          0      25772      25772          0          -
  > flowcover      :          -          -          -          -          -          -          -          4          0          1          1          0          -
  > knapsackcover  :          -          -          -          -          -          -          -          0          0          0          0          0          -
  cgmip            :       0.00       0.00          0          0          0          0          0          0          0          0          0          0          0
  clique           :       0.00       0.00         34         34          0          0          0          0          0          0          0          0          0
  closecuts        :       0.00       0.00          0          0          0          0          0          0          0          0          0          0          0
  convexproj       :       0.00       0.00          0          0          0          0          0          0          0          0          0          0          0
  disjunctive      :       0.00       0.00          0          0          0          0          0          0          0          0          0          0          0
  eccuts           :       0.00       0.00          0          0          0          0          0          0          0          0          0          0          0
  gauge            :       0.00       0.00          0          0          0          0          0          0          0          0          0          0          0
  gomory           :       0.00       0.00          0          0          0          0          0          0          0          0          0          0          0
  > gomorymi       :          -          -          -          -          -          -          -          0          0          0          0          0          -
  > strongcg       :          -          -          -          -          -          -          -          0          0          0          0          0          -
  impliedbounds    :       0.36       0.00       5191         34          0          0          9          0          0          0          0          0          0
  interlattice     :       0.12       0.00          7          7          0          0          7          0          7          6          0          6          0
  interminor       :       0.00       0.00          0          0          0          0          0          0          0          0          0          0          0
  intersub         :       0.04       0.00          1          1          0          0          1          0          1          1          0          1          0
  intobj           :       0.00       0.00          0          0          0          0          0          0          0          0          0          0          0
  mcf              :       0.00       0.00          1          1          0          0          0          0          0          0          0          0          0
  minor            :       0.01       0.00          0          0          0          0          0          0          0          0          0          0          0
  mixing           :       0.03       0.00       5191         34          0          0          0          0          0          0          0          0          0
  oddcycle         :       0.00       0.00          0          0          0          0          0          0          0          0          0          0          0
  rapidlearning    :       0.04       0.00          0          0          0          0          0          0          0          0          0          0          0
  rlt              :       0.00       0.00         10         10          0          0          0          0          0          0          0          0          0
  zerohalf         :      26.54       0.00       4869         20          0          0      29765    1002496          0     248748     248748          0          0
Cutselectors       :   ExecTime  SetupTime      Calls  RootCalls   Selected     Forced   Filtered  RootSelec   RootForc   RootFilt 
  hybrid           :       1.02       0.00      31771         34     276701          0     761194        137          0         31
Pricers            :   ExecTime  SetupTime      Calls       Vars
  problem variables:       0.00          -          0          0
Branching Rules    :   ExecTime  SetupTime   BranchLP  BranchExt   BranchPS    Cutoffs    DomReds       Cuts      Conss   Children
  allfullstrong    :       0.00       0.00          0          0          0          0          0          0          0          0
  cloud            :       0.00       0.00          0          0          0          0          0          0          0          0
  distribution     :       0.00       0.00          0          0          0          0          0          0          0          0
  fullstrong       :       0.00       0.00          0          0          0          0          0          0          0          0
  inference        :       0.00       0.00          0          0          0          0          0          0          0          0
  leastinf         :       0.00       0.00          0          0          0          0          0          0          0          0
  lookahead        :       0.00       0.00          0          0          0          0          0          0          0          0
  mostinf          :       0.00       0.00          0          0          0          0          0          0          0          0
  multaggr         :       0.00       0.00          0          0          0          0          0          0          0          0
  nodereopt        :       0.00       0.00          0          0          0          0          0          0          0          0
  pscost           :       0.00       0.00          0          0          0          0          0          0          0          0
  random           :       0.00       0.00          0          0          0          0          0          0          0          0
  relpscost        :      85.95       0.00     408334          0          0          0         15          0          0     816646
  vanillafullstrong:       0.00       0.00          0          0          0          0          0          0          0          0
Primal Heuristics  :   ExecTime  SetupTime      Calls      Found       Best
  LP solutions     :       0.00          -          -          0          0
  relax solutions  :       0.00          -          -          0          0
  pseudo solutions :       0.00          -          -          0          0
  strong branching :       0.01          -          -          0          0
  actconsdiving    :       0.00       0.00          0          0          0
  adaptivediving   :       2.08       0.00         38          0          0
  alns             :       1.82       0.00         23          0          0
  bound            :       0.00       0.00          0          0          0
  clique           :       0.01       0.00          1          0          0
  coefdiving       :       0.00       0.00          0          0          0
  completesol      :       0.00       0.00          0          0          0
  conflictdiving   :     105.41       0.00        840          0          0
  crossover        :       2.41       0.00          4          0          0
  dins             :       0.00       0.00          0          0          0
  distributiondivin:      68.64       0.00        372          0          0
  dps              :       0.00       0.00          0          0          0
  dualval          :       0.00       0.00          0          0          0
  farkasdiving     :       0.02       0.00          0          0          0
  feaspump         :       0.28       0.00          7          1          0
  fixandinfer      :       0.00       0.00          0          0          0
  fracdiving       :      35.39       0.00        314          0          0
  gins             :       0.39       0.00          0          0          0
  guideddiving     :      36.91       0.00        333          2          2
  indicator        :       0.41       0.00          0          0          0
  indicatordiving  :       0.00       0.00          0          0          0
  intdiving        :       0.00       0.00          0          0          0
  intshifting      :       0.72       0.00        123          0          0
  linesearchdiving :      31.58       0.00        431          1          1
  localbranching   :       0.00       0.00          0          0          0
  locks            :       0.01       0.00          1          0          0
  lpface           :       0.41       0.00          0          0          0
  mpec             :      55.95       0.00         11          0          0
  multistart       :       0.00       0.00          0          0          0
  mutation         :       0.00       0.00          0          0          0
  nlpdiving        :      11.02       0.00          1          0          0
  objpscostdiving  :      30.40       0.00        116         13          1
  octane           :       0.00       0.00          0          0          0
  ofins            :       0.31       0.00          0          0          0
  oneopt           :       0.46       0.00          8          0          0
  padm             :       0.00       0.00          0          0          0
  proximity        :       0.00       0.00          0          0          0
  pscostdiving     :      35.13       0.00        233          1          1
  randrounding     :       2.27       0.00      38701          0          0
  rens             :       0.00       0.00          0          0          0
  reoptsols        :       0.00       0.00          0          0          0
  repair           :       0.00       0.00          0          0          0
  rins             :       4.99       0.00         42          0          0
  rootsoldiving    :      31.67       0.00        435         82          0
  rounding         :       2.62       0.00       9279          0          0
  shiftandpropagate:       0.00       0.00          0          0          0
  shifting         :      33.45       0.00      10213          1          1
  simplerounding   :       0.60       0.00          0          0          0
  subnlp           :     485.59       0.00          0          0          0
  trivial          :       0.02       0.00          2          2          2
  trivialnegation  :       0.00       0.00          0          0          0
  trustregion      :       0.00       0.00          0          0          0
  trysol           :       0.65       0.00          0          0          0
  twoopt           :       0.00       0.00          0          0          0
  undercover       :       3.76       0.00          1          1          1
  vbounds          :       0.00       0.00          0          0          0
  veclendiving     :      35.73       0.00        572          0          0
  zeroobj          :       0.00       0.00          0          0          0
  zirounding       :       0.66       0.00       1000          0          0
  other solutions  :          -          -          -          0          -
Diving (single)    :      Calls      Nodes   LP Iters Backtracks  Conflicts   MinDepth   MaxDepth   AvgDepth  RoundSols  NLeafSols  MinSolDpt  MaxSolDpt  AvgSolDpt
  actconsdiving    :          0          -          -          -          -          -          -          -          -          -          -          -          -
  coefdiving       :          0          -          -          -          -          -          -          -          -          -          -          -          -
  conflictdiving   :        840      36929     926534        633      16880         62         89       77.3          0          -          -          -          -
  distributiondivin:        372      16161     315192        437       7570         61         93       73.7          0          -          -          -          -
  farkasdiving     :          0          -          -          -          -          -          -          -          -          -          -          -          -
  fracdiving       :        314      33381     316176         94       1346         70        509      134.6          0          -          -          -          -
  guideddiving     :        333      28973     334200         34       5055         70        252      116.0          0          2        117        118      117.5
  indicatordiving  :          0          -          -          -          -          -          -          -          -          -          -          -          -
  linesearchdiving :        431      25161     320225         25      10948         69        108       90.1          0          1         91         91       91.0
  pscostdiving     :        233      11880     332069        260       5317         67         95       80.2          0          1         86         86       86.0
  veclendiving     :        572      31425     311318        486      29614         70         97       84.2          0          -          -          -          -
Diving (adaptive)  :      Calls      Nodes   LP Iters Backtracks  Conflicts   MinDepth   MaxDepth   AvgDepth  RoundSols  NLeafSols  MinSolDpt  MaxSolDpt  AvgSolDpt
  actconsdiving    :          2         56        105          3         19         73         75       74.0          0          -          -          -          -
  coefdiving       :          6        340       2357          4        214         76         94       85.5          0          -          -          -          -
  conflictdiving   :          0          -          -          -          -          -          -          -          -          -          -          -          -
  distributiondivin:          0          -          -          -          -          -          -          -          -          -          -          -          -
  farkasdiving     :          0          -          -          -          -          -          -          -          -          -          -          -          -
  fracdiving       :          4        203       1283          0         24         80        139       96.0          0          -          -          -          -
  guideddiving     :          4        236       2868          1         88         78        102       90.8          0          -          -          -          -
  indicatordiving  :          0          -          -          -          -          -          -          -          -          -          -          -          -
  linesearchdiving :         15        670       7867          3        312         70         98       86.9          0          -          -          -          -
  pscostdiving     :          2         99       2141          3         48         81         81       81.0          0          -          -          -          -
  veclendiving     :          5        217       1723          2         59         72         93       81.6          0          -          -          -          -
Neighborhoods      :      Calls  SetupTime  SolveTime SolveNodes       Sols       Best       Exp3  EpsGreedy        UCB TgtFixRate  Opt  Inf Node Stal  Sol  Usr Othr Actv
  rens             :          2       0.03       0.10         57          0          0    0.00000   -1.00000    0.46492      0.850    0    1    0    1    0    0    0    1
  rins             :          3       0.07       0.17        153          0          0    0.00000   -1.00000    0.46499      0.900    0    1    0    2    0    0    0    1
  mutation         :          4       0.10       0.27        195          0          0    0.00000   -1.00000    0.46136      0.822    0    2    0    2    0    0    0    1
  localbranching   :          3       0.09       0.13        156          0          0    0.00000   -1.00000    0.46517      0.900    0    1    0    2    0    0    0    1
  crossover        :          4       0.08       0.15        142          0          0    0.00000   -1.00000    0.47026      0.822    0    2    0    2    0    0    0    1
  proximity        :          2       0.04       0.10         56          0          0    0.00000   -1.00000    0.47209      0.850    0    1    0    1    0    0    0    1
  zeroobjective    :          2       0.03       0.06        118          0          0    0.00000   -1.00000    0.45342      0.850    0    1    0    1    0    0    0    1
  dins             :          3       0.08       0.14        139          0          0    0.00000   -1.00000    0.46584      0.900    0    1    0    2    0    0    0    1
  trustregion      :          0       0.00       0.00          0          0          0    0.00000   -1.00000    1.00000      0.900    0    0    0    0    0    0    0    0
Expressions        :   #IntEval  IntEvalTi   #RevProp  RevPropTi    DomReds    Cutoffs  #Estimate  EstimTime  Branching  #Simplify SimplifyTi Simplified
  pow              :          0       0.00          0       0.00          0          0          0       0.00          0          0       0.00          0
  prod             :      17820       0.00          0       0.00          0          0          0       0.00          0      10091       0.02          0
  sum              :          8       0.00          2       0.00          0          0          0       0.00          0          3       0.05          2
  var              :       4799       0.01          0       0.00          0          0          0       0.00          0      21714       0.00          0
  varidx           :          0       0.00          0       0.00          0          0          0       0.00          0          0       0.00          0
LP                 :       Time      Calls Iterations  Iter/call   Iter/sec  Time-0-It Calls-0-It    ItLimit
  primal LP        :      98.90      27011          0       0.00       0.00      98.80      27011
  dual LP          :    1312.88     778258    6091734       9.15    4639.98      41.99     112340
  lex dual LP      :       0.00          0          0       0.00          -
  barrier LP       :       0.00          0          0       0.00          -       0.00          0
  resolve instable :       0.00          0          0       0.00          -
  diving/probing LP:     315.12      24562    3276078     133.38   10396.29
  strong branching :       5.84        818      50067      61.21    8573.12          -          -        481
    (at root node) :          -         20       3159     157.95          -
  conflict analysis:       7.82       6621      61274       9.25    7835.55
NLP relaxation     :
  solve time       :      10.65 (8 calls)
  convexity        :  nonconvex (145 linear rows, 0 convex ineq., 0 nonconvex ineq., 1181 nonlinear eq. or two-sided ineq.)
NLP Solvers        :  #Problems  ProblemTi    #Solves  SolveTime      #Iter  Time/Iter      #Okay #TimeLimit #IterLimit #LObjLimit #Interrupt  #NumError #EvalError  #OutOfMem #LicenseEr #OtherTerm   #GlobOpt    #LocOpt  #Feasible #LocInfeas #GlobInfea #Unbounded   #Unknown
  ipopt            :         12      20.92         45      66.71       1698       0.04         43          0          2          0          0          0          0          0          0          0          0         27          0         16          0          0          2
B&B Tree           :
  number of runs   :          1
  nodes            :     635555 (408323 internal, 227232 leaves)
  feasible leaves  :          0
  infeas. leaves   :       1418
  objective leaves :     225814
  nodes (total)    :     635555 (408323 internal, 227232 leaves)
  nodes left       :     180832
  max depth        :         78
  max depth (total):         78
  backtracks       :     132141 (20.8%)
  early backtracks :          0 (0.0%)
  nodes exc. ref.  :          0 (0.0%)
  delayed cutoffs  :          5
  repropagations   :         35 (294 domain reductions, 1 cutoffs)
  avg switch length:       7.46
  switching time   :     261.02
Estim. Tree Size   :    1271628
Estimation Tree    : 816647 nodes (635814 visited, 408323 internal, 227491 leaves, 180833 open), weight: 0.0000 completed 0.0422
Estimations        :      estim      value      trend resolution     smooth
  wbe              :         in          -          -          -          -
  tree-profile     :         -1          -          -          -          -
  gap              :   32598685    0.59932    0.00001        256   32420770
  tree-weight      :    1271628    0.00000    0.00000        256    1269641
  leaf-frequency   :    1271628    0.35779   -0.00005        256    1269641
  ssg              :   73043084    0.93334   -0.00001        256   72668959
  open-nodes       :    1271628 180833.00000  249.57630        256    1269641
Root Node          :
  First LP value   : -5.55465768799102e+00
  First LP Iters   :       2240 (13176.47 Iter/sec)
  First LP Time    :       0.17
  Final Dual Bound : -5.42783255567618e+00
  Final Root Iters :       2839
  Root LP Estimate : -2.17418487466404e+00
Solution           :
  Solutions found  :        104 (9 improvements)
  First Solution   : +1.00000000000000e+05   (in run 1, after 0 nodes, 0.02 seconds, depth 0, found by <trivial>)
  Gap First Sol.   :   infinite
  Gap Last Sol.    :      75.00 %
  Primal Bound     : -2.95173961840635e+00   (in run 1, after 27708 nodes, 283.71 seconds, depth 91, found by <linesearchdiving>)
  Dual Bound       : -4.92515506316951e+00
  Gap              :      66.86 %
Integrals          :      Total       Avg%
  primal-dual      :  147966.98      41.10
  primal-ref       :          -          - (not evaluated)
  dual-ref         :          -          - (not evaluated)
